NAME: ACTUAL_TOURS/amz0619
TYPE: TOUR
COMMENT: RouteID_40ca5580-5fb1-410e-806e-b1ad6d673fef
DIMENSION: 119
TOUR_SECTION
101
91
77
24
119
116
42
113
100
55
115
94
48
52
28
66
18
33
14
106
43
31
5
76
23
83
10
15
17
22
98
72
65
3
7
9
110
102
60
53
82
2
88
49
105
11
32
19
37
36
111
41
104
67
54
85
39
112
79
71
12
1
109
16
93
74
4
90
108
56
75
29
6
45
62
73
44
81
50
89
38
99
64
46
27
51
61
107
8
21
86
13
57
95
103
87
114
78
117
69
59
34
68
20
47
35
96
80
118
70
92
26
97
58
40
30
84
63
25
-1
EOF
